(declare-sort sk 0)
(declare-datatypes () ((Nat (Z) (S (p Nat)))))
(declare-fun plus (Nat Nat) Nat)
(declare-fun minus (Nat Nat) Nat)
(assert (forall ((y Nat)) (= (plus Z y) y)))
(assert
  (forall ((y Nat) (z Nat)) (= (plus (S z) y) (S (plus z y)))))
(assert (forall ((y Nat)) (= (minus Z y) Z)))
(assert (forall ((z Nat)) (= (minus (S z) Z) (S z))))
(assert
  (forall ((z Nat) (x2 Nat)) (= (minus (S z) (S x2)) (minus z x2))))
(assert-not (forall ((n Nat) (m Nat)) (= (minus (plus n m) n) m)))
(check-sat)
